c 1 MinePumpSys
c 2 Command
c 3 WaterRegulation
c 4 MethaneDetect
c 5 Start
c 6 Stop
c 7 Low
c 8 Normal
c 9 High
p cnf 9 12
1 0
-2 1 0
-3 1 0
-1 3 0
-4 1 0
-5 2 0
-6 2 0
-2 5 6 0
-7 3 0
-8 3 0
-9 3 0
-3 9 0
